c ---- [ banner ] ------------------------------------------------------------
c
c Kissat SAT Solver
c 
c Copyright (c) 2021-2024 Armin Biere University of Freiburg
c Copyright (c) 2019-2021 Armin Biere Johannes Kepler University Linz
c 
c Version 4.0.1 43f02cf3e992cb44653b35e5cb26f93281552ae0
c gcc (Ubuntu 13.2.0-23ubuntu4) 13.2.0 -W -Wall -O3 -DNDEBUG
c Thu Sep 12 12:27:46 CEST 2024 Linux abryzen9 6.8.0-41-generic x86_64
c
c ---- [ parsing ] -----------------------------------------------------------
c
c opened and reading DIMACS file:
c
c   /data/artifact/AMulet2.0_artifact/exp4/cnf_resyn3_64/64_64_U2_4to2_RC_Multgen_resyn3.cnf
c
c parsed 'p cnf 20573 81297' header
c closing input after reading 1592788 bytes (2 MB)
c finished parsing after 0.01 seconds
c
c ---- [ options ] -----------------------------------------------------------
c
c --stable=0                       (different from default '1')
c
c ---- [ solving ] -----------------------------------------------------------
c
c  seconds switched rate     size/glue tier1  binary         remaining
c         MB reductions conflicts size  tier2    irredundant
c          level restarts redundant glue  trail         variables
c
c *  0.01  8 0 0 0  0 0   0   0 0.0 0 0 0 0 0% 3029 78266 20570 100%
c (  0.02  9 0 0 0  0 0   0   0 0.0 0 0 0 0 0% 3029 78266 20570 100%
c .  0.02  9 0 0 0  0 0   0   0 0.0 0 0 0 0 0% 3025 78266 20570 100%
c c  0.06 17 0 0 0  0 0   0   0 0.0 0 0 0 0 0% 3283 77955 20402 99%
c d  0.07 17 0 0 0  0 0   0   0 0.0 0 0 0 0 0% 2895 77955 20402 99%
c =  0.10 17 0 0 0  0 0   0   0 0.0 0 0 0 0 0% 2836 77955 20396 99%
c d  0.10 17 0 0 0  0 0   0   0 0.0 0 0 0 0 0% 2847 77929 20396 99%
c d  0.10 17 0 0 0  0 0   0   0 0.0 0 0 0 0 0% 2838 77929 20392 99%
c f  0.15 16 0 0 0  0 0   0   0 0.0 0 0 0 0 0% 2828 77922 20396 99%
c e  0.24 17 0 0 0  0 0   0   0 0.0 0 0 0 0 0% 2341 78105 15568 76%
c )  0.24 17 0 0 0  0 0   0   0 0.0 0 0 0 0 0% 2341 78105 15568 76%
c {  0.25 17 0 0 0  0 0   0   0 0.0 0 0 2 6 0% 2341 78105 15568 76%
c i  0.25 17 209 0 0 12 9 128 118 1.9 5 3 2 3 4% 2346 78105 15567 76%
c -  0.30 18 120 0 1 305 30 1003 787 1.9 8 4 3 7 10% 2379 78098 15567 76%
c i  0.31 18 127 0 1 336 32 1099 874 1.9 8 4 3 7 11% 2383 78098 15563 76%
c -  0.36 18 103 0 2 500 27 2003 1522 1.8 8 4 3 8 11% 2417 78077 15563 76%
c c  0.44 18 101 0 2 647 28 2505 1991 1.9 9 5 3 8 12% 2501 77930 15527 75%
c d  0.44 18 101 0 2 647 28 2505 1971 1.9 9 5 3 8 12% 2435 77924 15527 75%
c u  0.45 18 101 0 2 647 28 2505 1588 1.9 9 5 3 8 12% 2423 77924 15527 75%
c v  0.45 18 101 0 2 647 28 2505 1426 1.9 9 5 3 8 12% 2423 77924 15527 75%
c
c  seconds   switched   rate       size/glue tier1   binary         remaining
c         MB  reductions conflicts      size  tier2     irredundant
c           level restarts    redundant   glue   trail         variables
c
c w  0.46 18 101 0 2 647 28 2505 1425 1.9 9 5 3 8 12% 2423 77924 15527 75%
c x  0.47 18 101 0 2 647 28 2505 1424 1.9 9 5 3 8 12% 2606 77565 15527 75%
c d  0.50 18 101 0 2 647 28 2505 1424 1.9 9 5 3 8 12% 2602 77564 15525 75%
c t  0.50 18 101 0 2 647 28 2505 1424 1.9 9 5 3 8 12% 2520 77564 15525 75%
c f  0.51 18 101 0 2 647 28 2505 1424 1.9 9 5 3 8 12% 2695 77300 15613 76%
c u  0.55 18 101 0 2 647 28 2505 1386 1.9 9 5 3 8 12% 2696 77300 15613 76%
c v  0.55 18 101 0 2 647 28 2505 1301 1.9 9 5 3 8 12% 2696 77300 15613 76%
c w  0.56 18 101 0 2 647 28 2505 1300 1.9 9 5 3 8 12% 2696 77300 15613 76%
c x  0.57 18 101 0 2 647 28 2505 1299 1.9 9 5 3 8 12% 2760 77167 15613 76%
c t  0.57 18 101 0 2 647 28 2505 1299 1.9 9 5 3 8 12% 2720 77167 15613 76%
c f  0.58 18 101 0 2 647 28 2505 1299 1.9 9 5 3 8 12% 2735 77132 15621 76%
c -  0.68 18 103 0 3 847 28 3417 1876 2.0 10 5 3 8 13% 2743 77131 15621 76%
c -  0.88 18 111 0 4 1083 26 5150 3073 1.9 10 5 3 9 15% 2753 77129 15621 76%
c -  1.03 18 106 0 5 1257 23 7151 4225 1.9 10 5 3 8 15% 2784 77126 15621 76%
c d  1.10 18 105 0 5 1340 22 7714 4747 1.9 10 5 3 8 15% 2775 77126 15616 76%
c u  1.13 18 105 0 5 1340 22 7714 4123 1.9 10 5 3 8 15% 2776 77126 15616 76%
c v  1.15 18 105 0 5 1340 22 7714 3948 1.9 10 5 3 8 15% 2776 77126 15616 76%
c w  1.16 18 105 0 5 1340 22 7714 3945 1.9 10 5 3 8 15% 2776 77126 15616 76%
c x  1.18 18 105 0 5 1340 22 7714 3945 1.9 10 5 3 8 15% 2795 77084 15615 76%
c =  1.25 18 105 0 5 1340 22 7714 3945 1.9 10 5 3 8 15% 2883 77073 15570 76%
c
c  seconds   switched    rate       size/glue tier1    binary         remaining
c         MB  reductions  conflicts       size  tier2     irredundant
c           level  restarts    redundant    glue   trail         variables
c
c d  1.25 18 105 0 5 1340 22 7714 3926 1.9 10 5 3 8 15% 2793 77071 15570 76%
c t  1.27 18 105 0 5 1340 22 7714 3926 1.9 10 5 3 8 15% 2754 77071 15570 76%
c f  1.29 18 105 0 5 1340 22 7714 3926 1.9 10 5 3 8 15% 2764 77051 15575 76%
c c  1.35 18 105 0 5 1340 22 7714 3919 1.9 10 5 3 8 15% 2796 76981 15559 76%
c d  1.36 18 105 0 5 1340 22 7714 3919 1.9 10 5 3 8 15% 2764 76981 15559 76%
c u  1.38 18 105 0 5 1340 22 7714 3575 1.9 10 5 3 8 15% 2762 76981 15559 76%
c v  1.40 18 105 0 5 1340 22 7714 3367 1.9 10 5 3 8 15% 2762 76981 15559 76%
c w  1.41 18 105 0 5 1340 22 7714 3357 1.9 10 5 3 8 15% 2762 76981 15559 76%
c x  1.43 18 105 0 5 1340 22 7714 3357 1.9 10 5 3 8 15% 2763 76979 15559 76%
c =  1.52 18 105 0 5 1340 22 7714 3357 1.9 10 5 3 8 15% 2781 76979 15550 76%
c d  1.52 18 105 0 5 1340 22 7714 3357 1.9 10 5 3 8 15% 2762 76979 15550 76%
c t  1.54 18 105 0 5 1340 22 7714 3357 1.9 10 5 3 8 15% 2754 76979 15550 76%
c f  1.56 18 105 0 5 1340 22 7714 3357 1.9 10 5 3 8 15% 2760 76970 15553 76%
c i  1.56 18 105 0 5 1340 22 7714 3357 1.9 10 5 3 8 15% 2760 76970 15553 76%
c -  1.75 18 108 0 6 1500 22 9387 4217 1.9 10 5 3 9 16% 2773 76965 15553 76%
c o  1.82 18 108 0 6 1558 22 10111 4841 1.9 10 5 3 9 17% 2776 76965 15553 76%
c -  2.09 18 111 0 7 1769 22 11836 5573 2.0 11 5 3 9 18% 2783 76965 15553 76%
c s  2.19 18 111 0 7 1861 22 12520 6219 2.0 11 5 3 9 18% 2790 76572 15553 76%
c e  2.28 18 111 0 7 1861 22 12520 6219 2.0 11 5 3 9 18% 2090 77103 14221 69%
c s  2.29 18 111 0 7 1861 22 12520 6219 2.0 11 5 3 9 18% 2090 76998 14221 69%
c
c  seconds   switched    rate        size/glue tier1    binary         remaining
c         MB  reductions   conflicts       size  tier2     irredundant
c           level  restarts     redundant    glue   trail         variables
c
c e  2.30 18 111 0 7 1861 22 12520 6219 2.0 11 5 3 9 18% 2090 76998 14220 69%
c ^  2.30 18 111 0 7 1861 22 12520 6219 2.0 11 5 3 9 18% 2090 76998 14220 69%
c -  2.62 23 112 0 8 2054 22 14481 5902 2.0 11 5 3 9 19% 2094 76998 14220 69%
c u  2.93 18 113 0 8 2192 21 15805 5809 1.9 11 5 3 9 19% 2103 76998 14220 69%
c v  2.98 18 113 0 8 2192 21 15805 5210 1.9 11 5 3 9 19% 2103 76998 14220 69%
c w  3.00 18 113 0 8 2192 21 15805 5200 1.9 11 5 3 9 19% 2103 76998 14220 69%
c t  3.14 18 113 0 8 2192 21 15805 5200 1.9 11 5 3 9 19% 2100 76998 14220 69%
c f  3.19 18 113 0 8 2192 21 15805 5200 1.9 11 5 3 9 19% 2113 76967 14228 69%
c u  3.23 18 113 0 8 2192 21 15805 5041 1.9 11 5 3 9 19% 2114 76967 14228 69%
c v  3.27 18 113 0 8 2192 21 15805 4868 1.9 11 5 3 9 19% 2114 76967 14228 69%
c w  3.28 18 113 0 8 2192 21 15805 4858 1.9 11 5 3 9 19% 2114 76967 14228 69%
c x  3.31 18 113 0 8 2192 21 15805 4857 1.9 11 5 3 9 19% 2120 76959 14228 69%
c t  3.33 18 113 0 8 2192 21 15805 4857 1.9 11 5 3 9 19% 2114 76959 14228 69%
c f  3.37 18 113 0 8 2192 21 15805 4857 1.9 11 5 3 9 19% 2119 76944 14233 69%
c -  3.59 18 113 0 9 2311 21 17310 5399 1.9 11 5 3 9 20% 2128 76944 14233 69%
c o  3.90 18 113 0 9 2558 20 20260 8140 1.9 10 5 3 9 21% 2144 76941 14233 69%
c -  3.91 18 113 0 10 2568 20 20311 7165 1.9 10 5 3 9 21% 2144 76941 14233 69%
c -  4.15 21 120 0 11 2762 19 23473 8744 1.9 10 5 3 8 21% 2167 76937 14233 69%
c s  4.43 21 119 0 11 2961 19 25046 10214 2.0 11 5 3 8 21% 2174 76914 14233 69%
c e  4.51 21 119 0 11 2961 19 25046 10214 2.0 11 5 3 8 21% 1853 77415 13863 67%
c
c  seconds   switched     rate         size/glue tier1    binary         remaining
c         MB   reductions   conflicts        size  tier2     irredundant
c           level   restarts      redundant    glue   trail         variables
c
c 2  4.51 21 119 0 11 2961 19 25046 10214 2.0 11 5 3 8 21% 1852 77415 13863 67%
c s  4.51 21 119 0 11 2961 19 25046 10214 2.0 11 5 3 8 21% 1871 77334 13863 67%
c ^  4.53 21 119 0 11 2961 19 25046 10214 2.0 11 5 3 8 21% 1871 77334 13863 67%
c -  4.79 22 119 0 12 3102 19 26790 9452 1.9 11 6 3 8 22% 1880 77333 13863 67%
c c  4.87 22 119 0 12 3117 19 26951 9604 1.9 11 6 3 8 22% 1899 77296 13850 67%
c d  4.87 22 119 0 12 3117 19 26951 9596 1.9 11 6 3 8 22% 1873 77296 13850 67%
c u  4.93 22 119 0 12 3117 19 26951 7422 1.9 11 6 3 8 22% 1877 77296 13850 67%
c v  4.98 22 119 0 12 3117 19 26951 6835 1.9 11 6 3 8 22% 1877 77296 13850 67%
c w  4.99 22 119 0 12 3117 19 26951 6835 1.9 11 6 3 8 22% 1877 77296 13850 67%
c d  5.15 22 119 0 12 3117 19 26951 6832 1.9 11 6 3 8 22% 1875 77296 13849 67%
c t  5.17 22 119 0 12 3117 19 26951 6832 1.9 11 6 3 8 22% 1843 77296 13849 67%
c f  5.20 22 119 0 12 3117 19 26951 6832 1.9 11 6 3 8 22% 1864 77230 13862 67%
c u  5.25 22 119 0 12 3117 19 26951 6552 1.9 11 6 3 8 22% 1867 77230 13862 67%
c v  5.28 22 119 0 12 3117 19 26951 6370 1.9 11 6 3 8 22% 1867 77230 13862 67%
c w  5.29 22 119 0 12 3117 19 26951 6366 1.9 11 6 3 8 22% 1867 77230 13862 67%
c d  5.30 22 119 0 12 3117 19 26951 6366 1.9 11 6 3 8 22% 1865 77230 13861 67%
c -  5.87 22 120 0 13 3459 19 30254 8355 1.9 11 6 3 8 23% 1875 77228 13861 67%
c -  6.36 22 119 0 14 3830 19 33859 10376 1.9 11 6 3 8 23% 1893 77223 13861 67%
c -  6.79 24 118 0 15 4079 18 37600 11240 1.9 11 6 2 8 23% 1917 77223 13861 67%
c o  7.16 24 118 0 15 4357 18 40261 13692 1.9 11 6 2 8 23% 1922 77222 13861 67%
c
c  seconds   switched     rate         size/glue tier1    binary         remaining
c         MB   reductions   conflicts        size  tier2     irredundant
c           level   restarts      redundant    glue   trail         variables
c
c d  7.27 24 118 0 15 4432 18 41303 14637 1.9 11 6 2 8 23% 1917 77222 13857 67%
c u  7.32 24 118 0 15 4432 18 41303 12801 1.9 11 6 2 8 23% 1923 77222 13857 67%
c v  7.37 24 118 0 15 4432 18 41303 12169 1.9 11 6 2 8 23% 1923 77222 13857 67%
c w  7.40 24 118 0 15 4432 18 41303 12159 1.9 11 6 2 8 23% 1923 77222 13857 67%
c x  7.43 24 118 0 15 4432 18 41303 12155 1.9 11 6 2 8 23% 1938 77200 13857 67%
c d  7.44 24 118 0 15 4432 18 41303 12152 1.9 11 6 2 8 23% 1934 77200 13855 67%
c t  7.45 24 118 0 15 4432 18 41303 12152 1.9 11 6 2 8 23% 1912 77200 13855 67%
c f  7.47 24 118 0 15 4432 18 41303 12152 1.9 11 6 2 8 23% 1914 77194 13856 67%
c c  7.52 24 118 0 15 4432 18 41303 12119 1.9 11 6 2 8 23% 1927 77162 13852 67%
c d  7.53 24 118 0 15 4432 18 41303 12119 1.9 11 6 2 8 23% 1919 77162 13852 67%
c u  7.57 24 118 0 15 4432 18 41303 11905 1.9 11 6 2 8 23% 1924 77162 13852 67%
c v  7.67 24 118 0 15 4432 18 41303 10218 1.9 11 6 2 8 23% 1925 77162 13852 67%
c w  7.70 24 118 0 15 4432 18 41303 10201 1.9 11 6 2 8 23% 1925 77162 13852 67%
c =  7.89 24 118 0 15 4432 18 41303 10201 1.9 11 6 2 8 23% 1951 77162 13839 67%
c d  7.90 24 118 0 15 4432 18 41303 10187 1.9 11 6 2 8 23% 1921 77162 13838 67%
c t  7.91 24 118 0 15 4432 18 41303 10187 1.9 11 6 2 8 23% 1918 77162 13838 67%
c -  7.96 24 118 0 16 4450 18 41472 8560 1.9 11 6 2 8 23% 1918 77162 13838 67%
c -  8.49 24 117 0 17 4809 18 45472 10450 1.9 11 6 2 8 23% 1937 77155 13838 67%
c i  8.63 24 117 0 17 4910 18 46262 11206 1.9 11 6 2 8 23% 1941 77154 13837 67%
c i  8.68 24 117 0 17 4950 18 46828 11696 1.9 11 6 2 8 23% 1948 77154 13836 67%
c
c  seconds   switched     rate         size/glue tier1    binary         remaining
c         MB   reductions   conflicts        size  tier2     irredundant
c           level   restarts      redundant    glue   trail         variables
c
c -  9.04 24 116 0 18 5181 18 49596 12225 1.9 11 6 2 8 23% 1956 77151 13836 67%
c s  9.36 24 115 0 18 5349 17 52195 14557 1.9 11 6 2 8 23% 1983 77002 13836 67%
c e  9.46 24 115 0 18 5349 17 52195 14557 1.9 11 6 2 8 23% 1660 78271 13299 65%
c s  9.47 24 115 0 18 5349 17 52195 14557 1.9 11 6 2 8 23% 1666 78035 13299 65%
c e  9.48 24 115 0 18 5349 17 52195 14557 1.9 11 6 2 8 23% 1662 78046 13295 65%
c ^  9.48 24 115 0 18 5349 17 52195 14557 1.9 11 6 2 8 23% 1662 78046 13295 65%
c -  9.70 24 115 0 19 5452 17 53839 12187 1.9 11 6 2 8 24% 1671 78043 13295 65%
c - 10.48 24 115 0 20 5917 17 58198 13865 1.9 11 6 2 8 24% 1679 78043 13295 65%
c u 10.66 24 114 0 20 5967 17 58961 12196 1.9 11 6 2 8 24% 1701 78038 13295 65%
c v 10.74 24 114 0 20 5967 17 58961 10128 1.9 11 6 2 8 24% 1701 78038 13295 65%
c w 10.76 24 114 0 20 5967 17 58961 10123 1.9 11 6 2 8 24% 1701 78038 13295 65%
c d 10.77 24 114 0 20 5967 17 58961 10120 1.9 11 6 2 8 24% 1695 78038 13292 65%
c t 10.78 24 114 0 20 5967 17 58961 10120 1.9 11 6 2 8 24% 1686 78038 13292 65%
c f 10.82 24 114 0 20 5967 17 58961 10120 1.9 11 6 2 8 24% 1691 78010 13296 65%
c u 10.88 24 114 0 20 5967 17 58961 9810 1.9 11 6 2 8 24% 1693 78010 13296 65%
c v 10.95 24 114 0 20 5967 17 58961 9393 1.9 11 6 2 8 24% 1693 78010 13296 65%
c w 10.97 24 114 0 20 5967 17 58961 9384 1.9 11 6 2 8 24% 1693 78010 13296 65%
c = 11.23 24 114 0 20 5967 17 58961 9384 1.9 11 6 2 8 24% 1731 78007 13277 65%
c d 11.23 24 114 0 20 5967 17 58961 9358 1.9 11 6 2 8 24% 1689 78007 13277 65%
c t 11.24 24 114 0 20 5967 17 58961 9358 1.9 11 6 2 8 24% 1684 78007 13277 65%
c
c  seconds   switched     rate        size/glue tier1    binary         remaining
c         MB   reductions   conflicts       size  tier2     irredundant
c           level   restarts     redundant    glue   trail         variables
c
c f 11.25 24 114 0 20 5967 17 58961 9358 1.9 11 6 2 8 24% 1687 77993 13279 65%
c - 11.85 24 114 0 21 6299 17 62672 11045 1.9 11 6 2 8 24% 1705 77989 13279 65%
c - 12.43 24 115 0 22 6585 17 67254 13222 1.9 11 6 2 8 25% 1728 77982 13279 65%
c o 13.01 24 115 0 22 6934 17 70275 16070 1.9 11 6 2 8 25% 1735 77981 13279 65%
c - 13.28 24 115 0 23 7104 17 71945 14912 1.9 11 6 2 8 25% 1741 77981 13279 65%
c - 14.02 24 115 0 24 7537 17 76740 16459 1.8 11 6 2 8 26% 1753 77980 13279 65%
c d 14.57 24 114 0 24 7830 17 80048 19509 1.8 11 6 2 8 26% 1766 77975 13276 65%
c u 14.66 24 114 0 24 7830 17 80048 16836 1.8 11 6 2 8 26% 1773 77975 13276 65%
c v 14.74 24 114 0 24 7830 17 80048 15857 1.8 11 6 2 8 26% 1773 77975 13276 65%
c w 14.78 24 114 0 24 7830 17 80048 15845 1.8 11 6 2 8 26% 1773 77975 13276 65%
c x 14.85 24 114 0 24 7830 17 80048 15842 1.8 11 6 2 8 26% 1799 77860 13276 65%
c = 15.18 24 114 0 24 7830 17 80048 15842 1.8 11 6 2 8 26% 2311 77814 13020 63%
c d 15.19 24 114 0 24 7830 17 80048 15602 1.8 11 6 2 8 26% 1774 77814 13020 63%
c t 15.21 24 114 0 24 7830 17 80048 15602 1.8 11 6 2 8 26% 1649 77814 13020 63%
c f 15.24 24 114 0 24 7830 17 80048 15602 1.8 11 6 2 8 26% 1685 77649 13041 63%
c c 15.31 24 114 0 24 7830 17 80048 15600 1.8 11 6 2 8 26% 1693 77640 13039 63%
c d 15.31 24 114 0 24 7830 17 80048 15600 1.8 11 6 2 8 26% 1689 77640 13039 63%
c u 15.39 24 114 0 24 7830 17 80048 15255 1.8 11 6 2 8 26% 1689 77640 13039 63%
c v 15.51 24 114 0 24 7830 17 80048 13143 1.8 11 6 2 8 26% 1689 77640 13039 63%
c w 15.55 24 114 0 24 7830 17 80048 13084 1.8 11 6 2 8 26% 1689 77640 13039 63%
c
c  seconds   switched     rate         size/glue tier1    binary         remaining
c         MB   reductions   conflicts        size  tier2     irredundant
c           level   restarts      redundant    glue   trail         variables
c
c = 15.89 24 114 0 24 7830 17 80048 13084 1.8 11 6 2 8 26% 1713 77634 13027 63%
c d 15.90 24 114 0 24 7830 17 80048 13075 1.8 11 6 2 8 26% 1682 77634 13027 63%
c t 15.91 24 114 0 24 7830 17 80048 13075 1.8 11 6 2 8 26% 1667 77634 13027 63%
c - 16.16 24 114 0 25 8004 17 81638 12454 1.8 11 6 2 8 26% 1670 77631 13027 63%
c - 16.92 24 115 0 26 8483 17 86639 14817 1.8 11 6 2 7 26% 1683 77630 13027 63%
c - 17.74 24 115 0 27 8965 17 91738 16895 1.8 11 6 2 7 26% 1717 77620 13027 63%
c s 18.38 24 115 0 27 9337 17 95922 20870 1.9 11 6 2 7 27% 1730 76261 13027 63%
c e 18.48 24 115 0 27 9337 17 95922 20870 1.9 11 6 2 7 27% 1353 77910 12578 61%
c s 18.49 24 115 0 27 9337 17 95922 20870 1.9 11 6 2 7 27% 1361 77505 12578 61%
c e 18.50 24 115 0 27 9337 17 95922 20870 1.9 11 6 2 7 27% 1352 77521 12569 61%
c ^ 18.50 24 115 0 27 9337 17 95922 20870 1.9 11 6 2 7 27% 1352 77521 12569 61%
c - 18.72 24 115 0 28 9412 17 96934 16631 1.9 11 6 2 7 27% 1352 77521 12569 61%
c - 19.36 24 114 0 29 9694 16 102225 18509 1.9 11 6 2 7 27% 1369 77520 12569 61%
c d 19.69 24 114 0 29 9922 16 104693 20826 1.9 11 6 2 7 27% 1371 77519 12567 61%
c u 19.74 24 114 0 29 9922 16 104693 17676 1.9 11 6 2 7 27% 1379 77519 12567 61%
c v 19.82 24 114 0 29 9922 16 104693 14871 1.9 11 6 2 7 27% 1381 77519 12567 61%
c w 19.85 24 114 0 29 9922 16 104693 14820 1.9 11 6 2 7 27% 1381 77519 12567 61%
c = 20.14 24 114 0 29 9922 16 104693 14820 1.9 11 6 2 7 27% 1835 77373 12324 60%
c d 20.14 24 114 0 29 9922 16 104693 14637 1.9 11 6 2 7 27% 1366 77373 12324 60%
c t 20.15 24 114 0 29 9922 16 104693 14637 1.9 11 6 2 7 27% 1337 77373 12324 60%
c
c  seconds   switched     rate          size/glue tier1    binary         remaining
c         MB   reductions   conflicts         size  tier2     irredundant
c           level   restarts       redundant    glue   trail         variables
c
c f 20.18 24 114 0 29 9922 16 104693 14637 1.9 11 6 2 7 27% 1350 77322 12328 60%
c u 20.22 24 114 0 29 9922 16 104693 14119 1.9 11 6 2 7 27% 1351 77322 12328 60%
c v 20.28 24 114 0 29 9922 16 104693 13435 1.9 11 6 2 7 27% 1351 77322 12328 60%
c w 20.30 24 114 0 29 9922 16 104693 13363 1.9 11 6 2 7 27% 1351 77322 12328 60%
c = 20.47 24 114 0 29 9922 16 104693 13363 1.9 11 6 2 7 27% 1591 77296 12207 59%
c d 20.47 24 114 0 29 9922 16 104693 13304 1.9 11 6 2 7 27% 1341 77296 12207 59%
c t 20.48 24 114 0 29 9922 16 104693 13304 1.9 11 6 2 7 27% 1329 77296 12207 59%
c f 20.49 24 114 0 29 9922 16 104693 13304 1.9 11 6 2 7 27% 1352 77197 12215 59%
c - 20.79 24 115 0 30 10097 16 107612 13971 1.8 11 6 2 7 27% 1352 77197 12215 59%
c o 21.03 24 115 0 30 10306 16 110279 16483 1.8 11 6 2 7 27% 1356 77197 12215 59%
c - 21.38 24 115 0 31 10586 17 113089 16571 1.8 11 6 2 7 28% 1358 77197 12215 59%
c - 21.88 24 115 0 32 10958 16 118657 18728 1.8 11 6 2 7 28% 1379 77197 12215 59%
c - 22.39 24 114 0 33 11332 16 124313 20400 1.8 11 6 2 7 28% 1402 77192 12215 59%
c - 23.09 24 114 0 34 11960 16 130059 21976 1.8 11 6 2 7 28% 1412 77191 12215 59%
c d 23.37 24 114 0 34 12242 16 132974 24704 1.8 11 6 2 7 28% 1412 77191 12213 59%
c u 23.44 24 114 0 34 12242 16 132974 21089 1.8 11 6 2 7 28% 1421 77191 12213 59%
c v 23.53 24 114 0 34 12242 16 132974 17661 1.8 11 6 2 7 28% 1423 77191 12213 59%
c w 23.57 24 114 0 34 12242 16 132974 17606 1.8 11 6 2 7 28% 1423 77191 12213 59%
c = 23.88 24 114 0 34 12242 16 132974 17606 1.8 11 6 2 7 28% 1489 77168 12180 59%
c d 23.89 24 114 0 34 12242 16 132974 17578 1.8 11 6 2 7 28% 1418 77168 12180 59%
c
c  seconds   switched      rate          size/glue tier1    binary         remaining
c         MB   reductions    conflicts         size  tier2     irredundant
c           level   restarts        redundant    glue   trail         variables
c
c t 23.89 24 114 0 34 12242 16 132974 17578 1.8 11 6 2 7 28% 1399 77168 12180 59%
c f 23.90 24 114 0 34 12242 16 132974 17578 1.8 11 6 2 7 28% 1402 77156 12181 59%
c u 23.96 24 114 0 34 12242 16 132974 17056 1.8 11 6 2 7 28% 1403 77156 12181 59%
c v 24.02 24 114 0 34 12242 16 132974 16284 1.8 11 6 2 7 28% 1403 77156 12181 59%
c w 24.05 24 114 0 34 12242 16 132974 16212 1.8 11 6 2 7 28% 1403 77156 12181 59%
c x 24.10 24 114 0 34 12242 16 132974 16201 1.8 11 6 2 7 28% 1473 76594 12181 59%
c t 24.42 24 114 0 34 12242 16 132974 16201 1.8 11 6 2 7 28% 1422 76594 12181 59%
c - 24.71 24 114 0 35 12479 16 135891 16324 1.8 11 6 2 7 28% 1440 76588 12181 59%
c - 25.28 24 114 0 36 12982 16 141808 19056 1.8 11 6 2 7 29% 1453 76587 12181 59%
c - 25.80 24 114 0 37 13417 16 147813 21345 1.8 11 6 2 7 29% 1486 76580 12181 59%
c - 26.30 24 114 0 38 13896 16 153895 23140 1.8 11 6 2 7 29% 1499 76579 12181 59%
c s 26.65 24 113 0 38 14251 16 158067 27012 1.8 11 6 2 7 29% 1527 74646 12181 59%
c e 26.81 26 113 0 38 14251 16 158067 27012 1.8 11 6 2 7 29% 1029 93567 9296 45%
c s 26.85 26 113 0 38 14251 16 158067 27012 1.8 11 6 2 7 29% 1040 91517 9296 45%
c e 26.88 26 113 0 38 14251 16 158067 27012 1.8 11 6 2 7 29% 995 91706 9272 45%
c ^ 26.88 26 113 0 38 14251 16 158067 27012 1.8 11 6 2 7 29% 995 91706 9272 45%
c - 27.08 26 114 0 39 14485 16 160060 10455 1.8 11 6 2 7 29% 998 91706 9272 45%
c o 27.10 26 114 0 39 14502 16 160291 10667 1.8 11 6 2 7 29% 998 91706 9272 45%
c c 27.56 26 114 0 39 14974 16 164991 15060 1.8 11 6 2 7 29% 1031 91617 9262 45%
c d 27.57 26 114 0 39 14974 16 164991 15043 1.8 11 6 2 7 29% 1011 91617 9262 45%
c
c  seconds   switched      rate          size/glue tier1    binary        remaining
c         MB   reductions    conflicts         size  tier2     irredundant
c           level   restarts        redundant    glue   trail        variables
c
c u 27.60 26 114 0 39 14974 16 164991 13525 1.8 11 6 2 7 29% 1020 91617 9262 45%
c v 27.65 26 114 0 39 14974 16 164991 11242 1.8 11 6 2 7 29% 1022 91617 9262 45%
c w 27.69 26 114 0 39 14974 16 164991 11101 1.8 11 6 2 7 29% 1022 91617 9262 45%
c d 27.70 26 114 0 39 14974 16 164991 11101 1.8 11 6 2 7 29% 1018 91616 9260 45%
c t 27.71 26 114 0 39 14974 16 164991 11101 1.8 11 6 2 7 29% 1002 91616 9260 45%
c f 27.78 26 114 0 39 14974 16 164991 11101 1.8 11 6 2 7 29% 1017 91289 9267 45%
c u 27.82 26 114 0 39 14974 16 164991 10948 1.8 11 6 2 7 29% 1019 91289 9267 45%
c v 27.85 26 114 0 39 14974 16 164991 10557 1.8 11 6 2 7 29% 1019 91289 9267 45%
c w 27.89 26 114 0 39 14974 16 164991 10370 1.8 11 6 2 7 29% 1019 91289 9267 45%
c = 28.23 26 114 0 39 14974 16 164991 10370 1.8 11 6 2 7 29% 1207 91285 9173 45%
c d 28.24 26 114 0 39 14974 16 164991 10304 1.8 11 6 2 7 29% 1011 91285 9172 45%
c t 28.24 26 114 0 39 14974 16 164991 10304 1.8 11 6 2 7 29% 1009 91285 9172 45%
c f 28.33 26 114 0 39 14974 16 164991 10304 1.8 11 6 2 7 29% 1031 90957 9183 45%
c - 28.45 26 114 0 40 15085 16 166305 9757 1.8 11 6 2 7 29% 1031 90957 9183 45%
c - 28.95 26 114 0 41 15651 16 172629 13170 1.8 11 6 2 7 29% 1037 90956 9183 45%
c - 29.50 26 114 0 42 16258 16 179032 15764 1.8 11 6 2 7 29% 1043 90955 9183 45%
c - 30.06 26 114 0 43 16984 17 185513 17603 1.8 11 6 2 7 29% 1048 90954 9183 45%
c - 30.58 27 114 0 44 17608 17 192071 19056 1.8 11 6 2 7 29% 1050 90954 9183 45%
c - 31.15 27 113 0 45 18304 17 198704 20393 1.7 11 6 2 7 28% 1053 90953 9183 45%
c d 31.26 27 113 0 45 18483 16 200775 22297 1.7 11 6 2 7 28% 1052 90953 9181 45%
c
c  seconds   switched      rate          size/glue tier1    binary        remaining
c         MB   reductions    conflicts         size  tier2     irredundant
c           level   restarts        redundant    glue   trail        variables
c
c u 31.31 27 113 0 45 18483 16 200775 20203 1.7 11 6 2 7 28% 1058 90953 9181 45%
c v 31.38 27 113 0 45 18483 16 200775 17519 1.7 11 6 2 7 28% 1058 90953 9181 45%
c w 31.40 27 113 0 45 18483 16 200775 17454 1.7 11 6 2 7 28% 1058 90953 9181 45%
c x 31.46 27 113 0 45 18483 16 200775 17360 1.7 11 6 2 7 28% 1096 90718 9181 45%
c = 31.81 27 113 0 45 18483 16 200775 17360 1.7 11 6 2 7 28% 1224 90706 9117 44%
c d 31.82 27 113 0 45 18483 16 200775 17253 1.7 11 6 2 7 28% 1091 90706 9116 44%
c t 31.83 27 113 0 45 18483 16 200775 17253 1.7 11 6 2 7 28% 1040 90706 9116 44%
c f 31.91 27 113 0 45 18483 16 200775 17253 1.7 11 6 2 7 28% 1064 90445 9126 44%
c u 31.98 27 113 0 45 18483 16 200775 16987 1.7 11 6 2 7 28% 1080 90445 9126 44%
c v 32.04 27 113 0 45 18483 16 200775 15146 1.7 11 6 2 7 28% 1082 90445 9126 44%
c w 32.06 27 113 0 45 18483 16 200775 15070 1.7 11 6 2 7 28% 1082 90445 9126 44%
c d 32.42 27 113 0 45 18483 16 200775 15069 1.7 11 6 2 7 28% 1080 90445 9125 44%
c t 32.43 27 113 0 45 18483 16 200775 15069 1.7 11 6 2 7 28% 1069 90445 9125 44%
c - 32.96 27 113 0 46 19019 17 205412 15870 1.7 11 6 2 7 28% 1071 90445 9125 44%
c - 33.51 27 113 0 47 19661 17 212194 18278 1.7 11 6 2 7 28% 1075 90444 9125 44%
c - 34.09 27 113 0 48 20349 17 219049 20271 1.7 11 6 2 7 28% 1077 90444 9125 44%
c o 34.20 27 113 0 48 20478 17 220293 21448 1.7 11 6 2 7 28% 1079 90444 9125 44%
c - 34.69 27 112 0 49 21043 17 225977 21772 1.7 11 6 2 7 28% 1083 90444 9125 44%
c - 35.26 27 113 0 50 21662 17 232977 23132 1.7 11 6 2 7 28% 1088 90444 9125 44%
c - 35.86 27 112 0 51 22425 17 240049 24431 1.7 11 6 2 7 28% 1094 90441 9125 44%
c
c  seconds   switched      rate          size/glue tier1    binary        remaining
c         MB   reductions    conflicts         size  tier2     irredundant
c           level   restarts        redundant    glue   trail        variables
c
c s 35.88 27 112 0 51 22425 17 240184 24559 1.7 11 6 2 7 28% 1106 89168 9125 44%
c e 36.03 27 112 0 51 22425 17 240184 24559 1.7 11 6 2 7 28% 893 99678 8327 40%
c s 36.06 27 112 0 51 22425 17 240184 24559 1.7 11 6 2 7 28% 896 97697 8327 40%
c e 36.11 27 112 0 51 22425 17 240184 24559 1.7 11 6 2 7 28% 865 97958 8298 40%
c ! 36.11 27 112 0 51 22425 17 240184 24559 1.7 11 6 2 7 28% 865 97958 8298 40%
c u 36.18 27 112 0 51 22440 17 240437 16977 1.7 11 6 2 7 28% 874 97958 8298 40%
c v 36.24 27 112 0 51 22440 17 240437 14047 1.7 11 6 2 7 28% 874 97958 8298 40%
c w 36.24 27 112 0 51 22440 17 240437 14037 1.7 11 6 2 7 28% 874 97958 8298 40%
c x 36.36 27 112 0 51 22440 17 240437 13876 1.7 11 6 2 7 28% 981 96816 8298 40%
c t 36.37 27 112 0 51 22440 17 240437 13876 1.7 11 6 2 7 28% 915 96816 8298 40%
c f 36.46 27 112 0 51 22440 17 240437 13876 1.7 11 6 2 7 28% 935 96508 8308 40%
c u 36.50 27 112 0 51 22440 17 240437 13624 1.7 11 6 2 7 28% 937 96508 8308 40%
c v 36.54 27 112 0 51 22440 17 240437 13223 1.7 11 6 2 7 28% 937 96508 8308 40%
c w 36.55 27 112 0 51 22440 17 240437 13215 1.7 11 6 2 7 28% 937 96508 8308 40%
c x 36.67 27 112 0 51 22440 17 240437 13155 1.7 11 6 2 7 28% 966 96182 8308 40%
c = 37.08 27 112 0 51 22440 17 240437 13155 1.7 11 6 2 7 28% 1148 95567 8184 40%
c d 37.08 27 112 0 51 22440 17 240437 12938 1.7 11 6 2 7 28% 961 95567 8184 40%
c t 37.09 27 112 0 51 22440 17 240437 12938 1.7 11 6 2 7 28% 918 95567 8184 40%
c f 37.18 27 112 0 51 22440 17 240437 12938 1.7 11 6 2 7 28% 940 95360 8193 40%
c - 37.58 27 111 0 52 23004 16 247190 15910 1.7 11 6 2 7 27% 939 95351 8193 40%
c
c  seconds   switched      rate          size/glue tier1   binary        remaining
c         MB   reductions    conflicts         size  tier2    irredundant
c           level   restarts        redundant    glue   trail       variables
c
c - 37.81 27 108 0 53 23531 16 254401 18681 1.7 11 6 2 7 26% 957 95345 8193 40%
c i 38.02 27 105 0 53 24049 16 260614 24305 1.7 11 7 2 7 25% 974 95340 8192 40%
c - 38.07 27 105 0 54 24132 16 261683 20565 1.7 11 7 2 7 25% 969 95340 8192 40%
c i 38.10 27 104 0 54 24208 15 262886 21512 1.7 11 6 2 7 25% 979 95340 8191 40%
c i 38.20 27 103 0 54 24454 15 266014 24340 1.7 11 7 2 7 24% 994 95335 8190 40%
c - 38.25 27 101 0 55 24633 15 269031 21905 1.7 11 6 2 7 24% 1004 95335 8190 40%
c i 38.28 27 99 0 55 24665 15 271759 24161 1.7 11 6 2 7 23% 1037 95334 8189 40%
c i 38.32 27 97 0 55 24702 14 274869 26837 1.7 11 6 2 7 22% 1054 95334 8183 40%
c - 38.35 27 96 0 56 24721 14 276450 22777 1.8 11 6 2 7 22% 1017 95334 8183 40%
c i 38.36 27 95 0 56 24721 14 276748 23018 1.8 11 6 2 7 22% 1023 95334 8182 40%
c i 38.36 27 95 0 56 24725 14 276824 23079 1.8 11 6 2 7 22% 1027 95334 8168 40%
c i 38.36 27 95 0 56 24725 14 276869 23107 1.8 11 6 2 7 22% 1032 95334 8167 40%
c i 38.36 27 95 0 56 24725 14 276876 23109 1.8 11 6 2 7 22% 1036 95334 8166 40%
c i 38.36 27 95 0 56 24725 14 276894 23110 1.8 11 6 2 7 22% 1044 95334 8165 40%
c i 38.36 27 95 0 56 24725 14 276895 23110 1.8 11 6 2 7 22% 1044 95334 8164 40%
c i 38.36 27 95 0 56 24725 14 276923 23126 1.8 11 6 2 7 22% 1046 95334 8150 40%
c i 38.36 27 95 0 56 24725 14 276924 23126 1.8 11 6 2 7 22% 1046 95334 8149 40%
c i 38.36 27 95 0 56 24725 14 276971 23165 1.8 11 6 2 7 22% 1047 95334 8148 40%
c i 38.36 27 95 0 56 24725 14 276972 23165 1.8 11 6 2 7 22% 1047 95334 8146 40%
c i 38.36 27 95 0 56 24725 14 276985 23173 1.8 11 6 2 7 22% 1048 95333 8144 40%
c
c  seconds  switched      rate          size/glue tier1    binary        remaining
c         MB  reductions    conflicts         size  tier2     irredundant
c          level   restarts        redundant    glue   trail        variables
c
c i 38.36 27 95 0 56 24725 14 276987 23174 1.8 11 6 2 7 22% 1048 95333 8141 40%
c i 38.36 27 95 0 56 24725 14 276994 23176 1.8 11 6 2 7 22% 1049 95333 8140 40%
c i 38.36 27 95 0 56 24725 14 277004 23176 1.8 11 6 2 7 22% 1052 95332 8135 40%
c i 38.36 27 95 0 56 24725 14 277008 23178 1.8 11 6 2 7 22% 1053 95332 8134 40%
c } 38.36 27 95 0 56 24725 14 277010 23178 1.8 11 6 2 7 22% 1053 95332 8113 39%
c 0 38.36 27 95 0 56 24725 14 277010 23178 1.8 11 6 2 7 22% 1053 95332 8113 39%
c
c ---- [ result ] ------------------------------------------------------------
c
s UNSATISFIABLE
c
c ---- [ profiling ] ---------------------------------------------------------
c
c          27.75   72.34 %  search
c          27.75   72.34 %  focused
c          10.37   27.02 %  simplify
c           9.48   24.72 %  probe
c           4.16   10.85 %  sweep
c           3.28    8.54 %  vivify
c           1.01    2.63 %  eliminate
c           0.97    2.52 %  factor
c           0.51    1.34 %  substitute
c           0.42    1.09 %  congruence
c           0.24    0.64 %  reduce
c           0.22    0.57 %  preprocess
c           0.17    0.45 %  subsume
c           0.09    0.24 %  fastel
c           0.09    0.23 %  transitive
c           0.06    0.15 %  backbone
c           0.01    0.03 %  parse
c           0.01    0.03 %  lucky
c =============================================
c          38.36  100.00 %  total
c
c ---- [ statistics ] --------------------------------------------------------
c
c chronological:                         3900                1 %  conflicts
c conflicts:                           277010             7220.60 per second
c congruent:                              249                1 %  variables
c decisions:                          4191624               15.13 per conflict
c eliminated:                           11266               55 %  variables
c factored:                               222                1 %  variables
c fast_eliminated:                       4828               43 %  eliminated
c fast_strengthened:                        4                0 %  per strengthened
c fast_subsumed:                           11                0 %  per subsumed
c iterations:                              25                0 %  variables
c propagations:                     148810470          3878927    per second
c reductions:                              56             4947    interval
c reordered:                                7            39573    interval
c restarts:                             24725               11    interval
c strengthened:                          9829                0 %  checks
c substituted:                           1270                6 %  variables
c subsumed:                              9901                0 %  checks
c switched:                                 0                0    interval
c vivified:                             81848               17 %  checks
c
c ---- [ glue usage ] --------------------------------------------------------
c
c focused glue 2   used 137170 clauses 30.07% accumulated 57.79% tier1
c focused glue 3   used  70083 clauses 15.37% accumulated 73.16%
c focused glue 4-5 used  54230 clauses 11.89% accumulated 85.05%
c focused glue 6   used  16684 clauses  3.66% accumulated 88.71%
c focused glue 7   used  12831 clauses  2.81% accumulated 91.52% tier2
c
c ---- [ resources ] ---------------------------------------------------------
c
c maximum-resident-set-size:         28389376 bytes         27 MB
c process-time:                            38s              38.36 seconds
c
c ---- [ shutting down ] -----------------------------------------------------
c
c exit 20
